%NProcShared=8
%Chk=1_stage_conformero_6.chk
# AM1 Opt

 job1/teste001/0_stage_conformero_6.pdb

0  1
C           9.50700         0.00500         0.79100
S           9.79600        -1.02200         2.20700
O          10.90100        -1.90600         1.90300
O           9.83100        -0.16400         3.38000
C           8.32500        -2.01300         2.31600
C           7.30500        -1.84600         1.38500
C           6.14700        -2.62700         1.48500
C           8.18200        -2.92600         3.36000
C           7.02000        -3.70400         3.44600
C           5.98000        -3.57100         2.51600
C           4.76900        -4.41900         2.56200
C           3.46000        -3.86800         2.01900
C           4.58300        -5.67400         3.03400
C           3.14700        -6.12700         2.88600
C           2.45800        -4.99000         2.16600
C           1.44300        -5.26600         1.07700
C           0.99000        -4.69500         2.38900
C           5.53300        -6.59600         3.65900
C           5.70700        -6.59400         5.05200
C           6.59300        -7.49200         5.65300
C           7.32100        -8.37100         4.86000
F           8.16700        -9.23400         5.43800
C           7.18200        -8.36800         3.47800
C           6.28300        -7.48200         2.87500
H          10.35700         0.68300         0.68600
H           8.59400         0.58300         0.94600
H           9.42300        -0.62300        -0.09800
H           7.38800        -1.11200         0.58500
H           5.36700        -2.46700         0.74400
H           8.96000        -3.04400         4.11100
H           6.95700        -4.42700         4.25300
H           3.57400        -3.58000         0.96800
H           3.12500        -3.00100         2.59800
H           2.69400        -6.28600         3.87200
H           3.08400        -7.05500         2.30800
H           1.18400        -6.29600         0.85700
H           1.42100        -4.61600         0.21000
H           0.42600        -5.34000         3.05400
H           0.66300        -3.66100         2.40200
H           5.13800        -5.90900         5.67400
H           6.71400        -7.51600         6.73100
H           7.76700        -9.05800         2.87900
H           6.17300        -7.48800         1.79300


--Link1--%NProcShared=8
%Oldchk=1_stage_conformero_6.chk
%Chk=1_stage_conformero_6_solv.chk
# m062x/6-311G(d,p) scrf=(SMD,solvent=water) scf=maxcycle=1000 maxdisk=200Gb

AUTHOR    GENERATED BY OPEN BABEL 2.3.2
0 1