%NProcShared=8
%Chk=opt1.chk
#n AM1 Opt

 d5758cc6


0  1
C           0.98252         0.40272        -0.38701
S           2.67819         0.00520        -0.04930
O           2.69096        -1.32493         0.49251
O           3.47172         0.35136        -1.19599
C           3.11497         1.09152         1.27801
C           2.66573         0.82102         2.57174
C           2.99767         1.67113         3.62099
C           3.91096         2.21774         1.05424
C           4.28230         3.04438         2.11503
C           3.81088         2.78419         3.40143
C           4.21117         3.63112         4.55949
C           5.58076         3.53806         5.18580
C           3.30026         4.21264         5.34168
C           3.86566         4.66065         6.66843
C           5.31392         4.15913         6.56588
C           5.95556         3.54320         7.80262
C           6.43836         4.86997         7.30426
C           1.88286         4.38370         4.90123
C           0.83906         4.17342         5.80493
C          -0.48528         4.33633         5.40268
C          -0.77002         4.76851         4.11057
F          -2.04706         4.94868         3.72932
C           0.26223         5.02890         3.21438
C           1.58261         4.82169         3.60487
H           0.63135        -0.23743        -1.20040
H           0.92131         1.45418        -0.67874
H           0.39350         0.22382         0.51609
H           2.06168        -0.06148         2.76663
H           2.65570         1.43700         4.62709
H           4.25693         2.45349         0.05068
H           4.90920         3.91311         1.92989
H           6.31881         4.11363         4.61622
H           5.91071         2.50108         5.26581
H           3.33762         4.20493         7.50915
H           3.82836         5.74901         6.76163
H           6.55346         2.65669         7.61700
H           5.32003         3.51306         8.68294
H           7.37997         4.91667         6.76545
H           6.13951         5.77427         7.82473
H           1.05192         3.83241         6.81480
H          -1.29493         4.12782         6.09772
H           0.04040         5.39958         2.21656
H           2.38152         5.05733         2.90615



0 1

--Link1--
%NProcShared=8
%Oldchk=opt1.chk
%Chk=opt2.chk
#n m062x/6-311G(d,p) Opt Pop=NBO geom=check scf=maxcycle=1000 maxdisk=100Gb

 d5758cc6

0 1

--Link2--
%NProcShared=8
%Oldchk=opt2.chk
%Chk=fk+.chk
#n m062x/6-311G(d,p) SP Pop=NBO geom=check scf=maxcycle=1000 maxdisk=100Gb

 d5758cc6

1 2

--Link3--
%NProcShared=8
%oldchk=opt2.chk%Chk=fk-.chk
#n m062x/6-311G(d,p) SP Pop=NBO geom=check scf=maxcycle=1000 maxdisk=100Gb

 d5758cc6

-1 2

