%NProcShared=8
%Chk=opt1.chk
# AM1 Opt

 a9628903

0 1
C           3.36230         0.83998         1.20678
S           2.46060        -0.10888         0.00988
O           2.81695        -1.49161         0.16303
O           1.09124         0.32008         0.07899
C           3.08714         0.45297        -1.54730
C           4.00796        -0.31393        -2.26200
C           4.46715         0.11377        -3.50482
C           2.64855         1.66405        -2.08687
C           3.12623         2.10243        -3.32058
C           4.04657         1.33463        -4.03641
C           4.52924         1.74320        -5.38777
C           4.42559         0.83318        -6.59097
C           5.35264         2.77782        -5.57724
C           5.99532         2.77817        -6.94640
C           5.38856         1.51360        -7.57225
C           6.23113         0.65710        -8.50459
C           5.10522         1.46676        -9.06514
C           5.86596         3.59278        -4.43940
C           7.19918         3.45279        -4.04406
C           7.70218         4.20018        -2.98110
C           6.88170         5.11697        -2.33027
F           7.36708         5.84333        -1.30804
C           5.56303         5.29379        -2.74186
C           5.05835         4.53317        -3.79516
H           3.02744         0.54555         2.20496
H           3.16085         1.90047         1.03759
H           4.42827         0.63100         1.08806
H           4.36773        -1.25769        -1.85931
H           5.18156        -0.49970        -4.04718
H           1.91574         2.26430        -1.55358
H           2.73117         3.01960        -3.74537
H           3.40474         0.81607        -6.97958
H           4.74295        -0.18609        -6.36206
H           7.08375         2.71019        -6.88419
H           5.71980         3.67358        -7.50848
H           6.10214        -0.41469        -8.38361
H           7.25182         1.00104        -8.64598
H           4.18032         0.96753        -9.34000
H           5.33002         2.38309        -9.60353
H           7.84316         2.73291        -4.54332
H           8.73261         4.06631        -2.66060
H           4.93162         6.02818        -2.24878
H           4.04100         4.70408        -4.13505


--Link1--
%NProcShared=8
%Oldchk=opt1.chk
%Chk=opt2.chk
# m062x/6-311G(d,p) Opt Pop=NBO geom=check scf=maxcycle=1000 maxdisk=100Gb

 a9628903

0 1

--Link1--
%NProcShared=8
%Oldchk=opt2.chk
%Chk=fk+.chk
# m062x/6-311G(d,p) SP Pop=NBO geom=check scf=maxcycle=1000 maxdisk=100Gb

 a9628903

1 2

--Link1--
%NProcShared=8
%Oldchk=opt2.chk
%Chk=fk-.chk
# m062x/6-311G(d,p) SP Pop=NBO geom=check scf=maxcycle=1000 maxdisk=100Gb

 a9628903

-1 2

--Link1--
%NProcShared=8
%Oldchk=opt2.chk
%Chk=fk0.chk
# m062x/6-311G(d,p) SP Pop=NBO geom=check scf=maxcycle=1000 maxdisk=100Gb

 a9628903

0 2

